c WARNING: for repeatability, setting FPU to use double precision
d VARIABLES            121348       
d CONSTRAINTS          540114       
c ============================[ Problem Statistics ]=============================
c |                                                                             |
c |  Number of variables:        121348                                         |
c |  Number of clauses:          540114                                         |
c |  Parse time:                   0.08 s                                       |
c |                                                                             |
c ============================[ Search Statistics ]==============================
c | Conflicts |          ORIGINAL         |          LEARNT          | Progress |
c |           |    Vars  Clauses Literals |    Limit  Clauses Lit/Cl |          |
c ===============================================================================
c |       100 |  103071   488030  1183944 |   178944      100     13 | 15.062 % |
c |       250 |  103071   488030  1183944 |   196838      250     28 | 15.062 % |
c |       475 |  103071   488030  1183944 |   216522      475     41 | 15.062 % |
c |       812 |  103071   488030  1183944 |   238174      812     49 | 15.062 % |
c |      1318 |  103071   488030  1183944 |   261992     1318     86 | 15.062 % |
c |      2077 |  103071   488030  1183944 |   288191     2077     94 | 15.062 % |
c |      3216 |  103071   488030  1183944 |   317010     3216     90 | 15.062 % |
c |      4924 |  103069   488011  1183897 |   348711     4921     97 | 15.063 % |
c |      7486 |  103069   488011  1183897 |   383583     7483    120 | 15.063 % |
c |     11330 |  103069   488011  1183897 |   421941    11327    123 | 15.063 % |
c |     17096 |  103068   488002  1183876 |   464135    17082    133 | 15.064 % |
c |     25745 |  103068   488002  1183876 |   510549    25731    135 | 15.064 % |
c |     38719 |  103064   487943  1183727 |   561603    38661    134 | 15.067 % |
c |     58180 |  103058   487857  1183511 |   617764    57986    128 | 15.072 % |
c ===============================================================================
c restarts              : 236
c conflicts             : 74803          (2470 /sec)
c decisions             : 405524         (0.00 % random) (13392 /sec)
c propagations          : 156594810      (5171236 /sec)
c conflict literals     : 9276272        (16.04 % deleted)
d RESTARTS             236
d FAILURES             74803        
d NODES                405524       
d BACKTRACKS           405524       
d PROPAGATIONS         156594810    
d NOGOODSIZE           124.01 
d MEMORY               86.00 
d TIME                 30.2819 

s UNSATISFIABLE
